

[NpcPos]	Flags	Index	PosX	PosY	Type	IsRangeCheck
0	0	1	224	43	3	1
1	0	2	210	18	2	1
2	0	3	214	59	5	1
3	0	4	200	18	1	1
4	0	5	196	29	1	1
5	0	6	201	55	4	1
6	0	7	169	42	1	1
7	0	8	166	77	7	0
8	0	9	145	47	7	0
9	0	10	187	22	7	0
10	0	11	181	11	6	0
11	1	15	221	13	6	1
12	1	16	174	209	6	1
13	1	17	206	248	6	1
14	1	18	52	25	6	1
15	1	19	77	222	6	1
16	1	20	185	181	6	1
17	1	21	217	173	6	1
18	1	22	196	98	6	1
19	0	23	21	248	6	1
20	0	24	228	41	6	0
21	0	25	75	54	7	0
22	0	26	42	140	7	0
23	0	27	90	246	7	0
24	0	28	193	223	7	0
25	0	50	0	0	1	0

[WarpLst]	NpcsIdx	NSetIdx	TargetIdx	LV	Fee	Type
0	11	0	9	50	0	0
1	15	0	46	3	0	0
2	16	0	52	0	0	1
3	16	1	84	0	0	1
4	16	2	121	0	0	1
5	16	3	152	1	0	2
6	16	4	179	1	0	2
7	17	0	56	0	0	1
8	17	1	82	0	0	1
9	17	2	205	0	0	1
10	17	3	153	1	0	2
11	17	4	180	1	0	2
12	18	0	210	0	0	1
13	18	1	170	1	0	2
14	18	2	181	1	0	2
15	18	3	194	1	0	2
16	18	4	295	0	0	2
17	19	0	41	0	0	1
18	19	1	75	0	0	1
19	19	2	135	0	0	1
20	20	0	42	0	0	1
21	20	1	83	0	0	1
22	21	0	85	0	0	1
23	22	0	59	0	0	1
24	22	1	144	0	0	1
25	22	2	201	0	0	1
26	23	0	127	0	0	1
27	23	1	134	0	0	1
28	23	2	138	0	0	1
29	23	3	142	0	0	1
30	23	4	145	0	0	1
31	23	5	206	0	0	1
32	24	0	206	110	0	0

[SkillLst]	NSetIdx	NpcsIdx	SkillIdx	SkillLv
0	0	2	1	1
1	1	2	2	1
2	2	2	209	1
3	3	2	5	1
4	4	2	17	1
5	5	2	208	1
6	6	2	19	1
7	7	2	22	1
8	8	2	25	1
9	9	2	9	1
10	10	2	68	1
11	11	2	33	1
12	12	2	21	1
13	13	2	29	1
14	14	2	38	1
15	15	2	42	1
16	16	2	46	1
17	17	2	54	1
18	18	2	37	1
19	19	2	58	1
20	20	2	100	1
21	21	2	148	1
22	22	2	230	1
23	23	2	252	1
24	24	2	424	1
25	25	2	101	1
26	26	2	102	1
27	27	2	103	1
28	28	2	104	1
29	29	2	105	1
30	30	2	106	1
31	31	2	425	1
32	32	2	426	1
33	33	2	427	1
34	34	2	428	1
35	35	2	429	1
36	36	2	430	1
37	37	2	107	1
38	38	2	149	1
39	39	2	237	1
40	40	2	238	1
41	41	2	256	1
42	42	2	431	1
43	43	2	253	1
44	44	2	108	1
45	45	2	109	1
46	46	2	110	1
47	47	2	111	1
48	48	2	112	1
49	49	2	113	1
50	50	2	432	1
51	51	2	433	1
52	52	2	434	1
53	53	2	435	1
54	54	2	436	1
55	55	2	437	1
56	56	2	114	1
57	57	2	150	1
58	58	2	259	1
59	59	2	438	1
60	60	2	257	1
61	61	2	239	1
62	62	2	240	1
63	63	2	115	1
64	64	2	116	1
65	65	2	117	1
66	66	2	118	1
67	67	2	119	1
68	68	2	120	1
69	69	2	439	1
70	70	2	440	1
71	71	2	441	1
72	72	2	442	1
73	73	2	443	1
74	74	2	444	1
75	75	2	255	1
76	76	2	121	1
77	77	2	151	1
78	78	2	241	1
79	79	2	445	1
80	80	2	258	1
81	81	2	122	1
82	82	2	123	1
83	83	2	124	1
84	84	2	125	1
85	85	2	126	1
86	86	2	127	1
87	87	2	254	1
88	88	2	446	1
89	89	2	447	1
90	90	2	448	1
91	91	2	449	1
92	92	2	450	1
93	93	2	451	1
94	94	2	152	1
95	95	2	243	1
96	96	2	242	1
97	97	2	244	1
98	98	2	260	1
99	99	2	245	1
100	100	2	246	1
101	101	2	153	1
102	102	2	223	1
103	103	2	154	1
104	104	2	272	1
105	105	2	261	1
106	106	2	155	1
107	107	2	273	1
108	108	2	262	1
109	109	2	156	1
110	110	2	247	1
111	111	2	263	1
112	112	2	270	1
113	113	2	269	1
114	114	2	271	1
115	115	2	274	1
116	116	2	300	1
117	117	2	301	1
118	118	2	300	2
119	119	2	301	2
120	120	2	305	1
121	121	2	306	1
122	122	2	300	3
123	123	2	301	3
124	124	2	302	1
125	125	2	303	1
126	126	2	304	1
127	127	2	305	2
128	128	2	306	2
129	129	2	300	4
130	130	2	301	4
131	131	2	302	2
132	132	2	303	2
133	133	2	304	2
134	134	2	305	3
135	135	2	306	3
136	136	2	300	5
137	137	2	301	5
138	138	2	302	3
139	139	2	303	3
140	140	2	304	3
141	141	2	305	4
142	142	2	306	4
143	143	2	300	6
144	144	2	301	6
145	145	2	302	4
146	146	2	303	4
147	147	2	304	4
148	148	2	305	5
149	149	2	306	5
150	150	2	300	7
151	151	2	301	7
152	152	2	302	5
153	153	2	303	5
154	154	2	304	5
155	155	2	305	6
156	156	2	306	6
157	157	2	300	8
158	158	2	301	8
159	159	2	302	6
160	160	2	303	6
161	161	2	304	6
162	162	2	305	7
163	163	2	306	7
164	164	2	300	9
165	165	2	301	9
166	166	2	302	7
167	167	2	303	7
168	168	2	304	7
169	169	2	305	8
170	170	2	306	8
171	171	2	300	10
172	172	2	301	10
173	173	2	302	8
174	174	2	303	8
175	175	2	304	8
176	176	2	305	9
177	177	2	306	9
178	178	2	310	1
179	179	2	311	1
180	180	2	312	1
181	181	2	313	1
182	182	2	314	1
183	183	2	310	2
184	184	2	311	2
185	185	2	312	2
186	186	2	313	2
187	187	2	314	2
188	188	2	310	3
189	189	2	311	3
190	190	2	312	3
191	191	2	313	3
192	192	2	314	3

[ShopLst]	NpcsIdx	NSetIdx	ItemKind	ItemOpt	ReputationClass	DurationIdx	Price
0	4	0	46	1073741872	-19	0	10000
1	4	1	47	1073741872	-19	0	10000
2	4	2	48	1073741872	-19	0	100000
3	4	3	49	1073741872	-19	0	100000
4	4	4	50	1073741872	-19	0	1000000
5	4	5	51	1073741872	-19	0	1000000
6	4	6	52	1073741872	-19	0	10000000
7	4	7	53	1073741872	-19	0	10000000
8	4	32	54	1073741872	-19	0	100000000
9	4	33	55	1073741872	-19	0	100000000
10	4	34	61	1073741872	-19	0	10000
11	4	35	62	1073741872	-19	0	10000
12	4	36	63	1073741872	-19	0	100000
13	4	37	64	1073741872	-19	0	100000
14	4	38	65	1073741872	-19	0	1000000
15	4	39	66	1073741872	-19	0	1000000
16	4	64	67	1073741872	-19	0	10000000
17	4	65	68	1073741872	-19	0	10000000
18	4	66	69	1073741872	-19	0	100000000
19	4	67	70	1073741872	-19	0	100000000
20	5	0	256	1073741872	-19	0	10000
21	5	2	257	1073741872	-19	0	100000
22	5	4	258	1073741872	-19	0	100000
23	5	6	259	1073741872	-19	0	1000000
24	5	16	121	1073741872	-19	0	10000
25	5	18	122	1073741872	-19	0	100000
26	5	20	123	1073741872	-19	0	100000
27	5	22	124	1073741872	-19	0	1000000
28	5	48	211	1073741872	-19	0	10000
29	5	50	212	1073741872	-19	0	100000
30	5	52	213	1073741872	-19	0	100000
31	5	54	214	1073741872	-19	0	1000000
32	5	64	166	1073741872	-19	0	10000
33	5	66	167	1073741872	-19	0	100000
34	5	68	168	1073741872	-19	0	100000
35	5	70	169	1073741872	-19	0	1000000
36	5	80	260	1073741872	-19	0	1000000
37	5	82	125	1073741872	-19	0	1000000
38	5	84	215	1073741872	-19	0	1000000
39	5	86	170	1073741872	-19	0	1000000
40	6	0	16	1073741872	-19	0	10000
41	6	2	31	1073741872	-19	0	10000
42	6	4	17	1073741872	-19	0	10000
43	6	6	32	1073741872	-19	0	10000
44	6	16	18	1073741872	-19	0	100000
45	6	18	33	1073741872	-19	0	100000
46	6	20	19	1073741872	-19	0	100000
47	6	22	34	1073741872	-19	0	100000
48	6	32	20	1073741872	-19	0	1000000
49	6	34	35	1073741872	-19	0	1000000
50	6	36	21	1073741872	-19	0	1000000
51	6	38	36	1073741872	-19	0	1000000
52	6	48	22	1073741872	-19	0	10000000
53	6	50	37	1073741872	-19	0	10000000
54	6	52	23	1073741872	-19	0	10000000
55	6	54	38	1073741872	-19	0	10000000
56	6	64	24	1073741872	-19	0	100000000
57	6	66	39	1073741872	-19	0	100000000
58	6	68	25	1073741872	-19	0	100000000
59	6	70	40	1073741872	-19	0	100000000
60	6	96	5	100	-19	0	50000
61	6	97	8	100	-19	0	50000
62	6	98	12	100	-19	0	50000
63	6	104	2	0	-19	0	1000000
64	6	105	1214	0	-19	0	10000000
65	6	106	1	0	-19	0	1000000
66	6	107	10	0	-19	0	100000
67	6	108	9	0	-19	0	10000
68	7	0	261	1073741872	-19	0	10000000
69	7	2	262	1073741872	-19	0	10000000
70	7	4	263	1073741872	-19	0	100000000
71	7	6	264	1073741872	-19	0	100000000
72	7	16	126	1073741872	-19	0	10000000
73	7	18	127	1073741872	-19	0	10000000
74	7	20	128	1073741872	-19	0	100000000
75	7	22	129	1073741872	-19	0	100000000
76	7	48	216	1073741872	-19	0	10000000
77	7	50	217	1073741872	-19	0	10000000
78	7	52	218	1073741872	-19	0	100000000
79	7	54	219	1073741872	-19	0	100000000
80	7	64	171	1073741872	-19	0	10000000
81	7	66	172	1073741872	-19	0	10000000
82	7	68	173	1073741872	-19	0	100000000
83	7	70	174	1073741872	-19	0	100000000
84	7	80	265	1073741872	-19	0	100000000
85	7	82	130	1073741872	-19	0	100000000
86	7	84	220	1073741872	-19	0	100000000
87	7	86	175	1073741872	-19	0	100000000
88	7	114	266	1073741872	-19	0	100000000
89	7	96	131	1073741872	-19	0	100000000
90	7	100	221	1073741872	-19	0	100000000
91	7	102	176	1073741872	-19	0	100000000
92	7	127	1213	1323	-19	0	10000
93	50	0	3	1	-19	0	60
94	50	1	4	1	-19	0	800
95	50	2	5	1	-19	0	5000
96	50	3	6	1	-19	0	60
97	50	4	7	1	-19	0	800
98	50	5	8	1	-19	0	5000
99	50	8	3	4	-19	0	240
100	50	9	4	4	-19	0	3200
101	50	10	5	4	-19	0	20000
102	50	11	6	4	-19	0	240
103	50	12	7	4	-19	0	3200
104	50	13	8	4	-19	0	20000
105	50	16	3	7	-19	0	420
106	50	17	4	7	-19	0	5600
107	50	18	5	7	-19	0	35000
108	50	19	6	7	-19	0	420
109	50	20	7	7	-19	0	5600
110	50	21	8	7	-19	0	35000
111	50	24	5	20	1	0	100000
112	50	25	8	20	1	0	100000
113	50	26	12	10	1	0	8000
114	50	27	5	30	2	0	150000
115	50	28	8	30	2	0	150000
116	50	29	12	20	2	0	16000
117	50	35	5	50	3	0	250000
118	50	36	8	50	3	0	250000
119	50	37	12	30	3	0	24000
